\Generated by Cardinal Operations

Maximize
   1475.99 x_('B','A')15:40_f + 444.2 x_('B','A')15:40_l 
   + 1670.39 x_('A','C')17:25_f + 473.92 x_('A','C')17:25_l 
   + 1669.65 x_('A','C')15:45_f + 506.95 x_('A','C')15:45_l 
Subject To
 capacity_constraint_('B','A')15:40: 1.2 x_('B','A')15:40_f 
   + x_('B','A')15:40_l <= 187
 balance_constraint_('B','A')15:40: 3.7 x_('B','A')15:40_0 
   + 0.9 x_('B','A')15:40_f + 0.9 x_('B','A')15:40_l <= 167.42
 scale_constraint_('B','A')15:40_f: 3.079 x_('B','A')15:40_0 
   - 2 x_('B','A')15:40_f >= 0
 scale_constraint_('B','A')15:40_l: 1.652 x_('B','A')15:40_0 
   - 2 x_('B','A')15:40_l >= 0
 capacity_constraint_('A','C')17:25: 1.2 x_('A','C')17:25_f 
   + x_('A','C')17:25_l <= 187
 balance_constraint_('A','C')17:25: 4.92 x_('A','C')17:25_0 
   + 0.72 x_('A','C')17:25_f + 0.72 x_('A','C')17:25_l <= 149.28
 scale_constraint_('A','C')17:25_f: 2.803 x_('A','C')17:25_0 
   - 0.9 x_('A','C')17:25_f >= 0
 scale_constraint_('A','C')17:25_l: 1.367 x_('A','C')17:25_0 
   - 0.9 x_('A','C')17:25_l >= 0
 capacity_constraint_('A','C')15:45: 1.2 x_('A','C')15:45_f 
   + x_('A','C')15:45_l <= 187
 balance_constraint_('A','C')15:45: 4.92 x_('A','C')15:45_0 
   + 0.72 x_('A','C')15:45_f + 0.72 x_('A','C')15:45_l <= 154.21
 scale_constraint_('A','C')15:45_f: 2.803 x_('A','C')15:45_0 
   - 0.9 x_('A','C')15:45_f >= 0
 scale_constraint_('A','C')15:45_l: 1.367 x_('A','C')15:45_0 
   - 0.9 x_('A','C')15:45_l >= 0
END

